100	108040

565 573
197 275
979 957
614 524
679 742
838 871
460 404
273 173
857 922
758 812
420 364
913 986
236 149
41 43
744 769
794 762
524 551
886 832
10 98
361 311
837 833
184 100
793 866
516 555
505 418
411 397
527 576
172 225
247 257
552 512
558 538
186 265
278 249
255 195
700 715
886 869
169 177
299 334
240 176
185 228
699 712
43 66
972 880
646 600
962 922
936 874
295 310
958 889
577 492
734 684
433 482
141 185
615 594
561 535
875 892
252 349
256 175
348 327
502 451
299 360
850 761
297 373
583 568
964 1028
421 404
855 931
938 838
524 521
152 250
425 458
46 128
600 564
563 479
713 690
900 815
740 776
340 301
721 670
901 807
127 33
864 930
951 1043
511 464
802 799
516 560
337 265
755 795
998 1017
1 80
115 63
45 107
285 379
829 847
752 832
161 105
910 899
907 999
703 722
167 142
998 1024
